[runlim] version:		1.10
[runlim] time limit:		311040000 seconds
[runlim] real time limit:	600 seconds
[runlim] space limit:		14000 MB
[runlim] argv[0]:		python3
[runlim] argv[1]:		-u
[runlim] argv[2]:		mip.py
[runlim] argv[3]:		graph01
[runlim] start:			Tue Jan 20 19:43:25 2026
[runlim] main pid:		199258
Building MIP model...
Build time: 6.81s
Solving MIP (minimizing number of labels)...
Version identifier: 22.1.1.0 | 2022-11-28 | 9160aff4d
CPXPARAM_Read_DataCheck                          1
Legacy callback                                  i
Tried aggregator 2 times.
MIP Presolve eliminated 69093 rows and 0 columns.
MIP Presolve modified 9819 coefficients.
Aggregator did 3460 substitutions.
Reduced MIP has 9925 rows, 3508 columns, and 76149 nonzeros.
Reduced MIP has 3508 binaries, 0 generals, 0 SOSs, and 0 indicators.
Presolve time = 0.25 sec. (233.85 ticks)
Found incumbent of value 48.000000 after 0.32 sec. (327.82 ticks)
Probing time = 0.01 sec. (3.08 ticks)
Tried aggregator 1 time.
Detecting symmetries...
Reduced MIP has 9925 rows, 3508 columns, and 76149 nonzeros.
Reduced MIP has 3508 binaries, 0 generals, 0 SOSs, and 0 indicators.
Presolve time = 0.05 sec. (67.00 ticks)
Probing time = 0.01 sec. (3.08 ticks)
Clique table members: 9925.
MIP emphasis: balance optimality and feasibility.
MIP search method: dynamic search.
Parallel mode: deterministic, using up to 12 threads.
Root relaxation solution time = 0.30 sec. (279.88 ticks)

        Nodes                                         Cuts/
   Node  Left     Objective  IInf  Best Integer    Best Bound    ItCnt     Gap

*     0+    0                           48.0000        0.0000           100.00%
*     0+    0                           28.0000        0.0000           100.00%
*     0+    0                           26.0000        0.0000           100.00%
*     0+    0                           24.0000        0.0000           100.00%
*     0+    0                           22.0000        0.0000           100.00%
      0     0       18.0000   459       22.0000       18.0000     1857   18.18%

========== NEW INCUMBENT SOLUTION ==========
{1: 86, 2: 324, 3: 554, 4: 792, 5: 484, 6: 722, 7: 478, 8: 240, 9: 478, 10: 240, 11: 792, 12: 554, 13: 16, 14: 254, 15: 324, 16: 86, 17: 16, 18: 254, 19: 324, 20: 86, 21: 792, 22: 554, 23: 478, 24: 240, 25: 366, 26: 128, 27: 394, 28: 156, 29: 16, 30: 254, 31: 156, 32: 394, 33: 554, 34: 792, 35: 366, 36: 128, 37: 394, 38: 156, 39: 366, 40: 128, 41: 722, 42: 484, 43: 722, 44: 484, 45: 16, 46: 254, 47: 484, 48: 722, 49: 484, 50: 722, 51: 16, 52: 254, 53: 86, 54: 324, 55: 652, 56: 414, 57: 414, 58: 652, 59: 16, 60: 254, 61: 16, 62: 254, 63: 324, 64: 86, 65: 254, 66: 16, 67: 58, 68: 296, 69: 156, 70: 394, 71: 414, 72: 652, 73: 478, 74: 240, 75: 324, 76: 86, 77: 722, 78: 484, 79: 366, 80: 128, 81: 86, 82: 324, 83: 484, 84: 722, 85: 414, 86: 652, 87: 554, 88: 792, 89: 722, 90: 484, 91: 652, 92: 414, 93: 16, 94: 254, 95: 58, 96: 296, 97: 408, 98: 170, 99: 414, 100: 652, 101: 554, 102: 792, 103: 366, 104: 128, 105: 666, 106: 428, 107: 394, 108: 156, 109: 16, 110: 254, 111: 86, 112: 324, 113: 484, 114: 722, 115: 666, 116: 428, 117: 156, 118: 394, 119: 394, 120: 156, 121: 170, 122: 408, 123: 170, 124: 408, 125: 254, 126: 16, 127: 58, 128: 296, 129: 128, 130: 366, 131: 484, 132: 722, 133: 86, 134: 324, 135: 170, 136: 408, 137: 128, 138: 366, 139: 254, 140: 16, 141: 414, 142: 652, 143: 722, 144: 484, 145: 86, 146: 324, 147: 722, 148: 484, 149: 366, 150: 128, 151: 722, 152: 484, 153: 722, 154: 484, 155: 156, 156: 394, 157: 366, 158: 128, 159: 254, 160: 16, 161: 414, 162: 652, 163: 484, 164: 722, 165: 128, 166: 366, 167: 666, 168: 428, 169: 156, 170: 394, 171: 484, 172: 722, 173: 324, 174: 86, 175: 652, 176: 414, 177: 484, 178: 722, 179: 722, 180: 484, 181: 128, 182: 366, 183: 86, 184: 324, 185: 554, 186: 792, 187: 86, 188: 324, 189: 16, 190: 254, 191: 296, 192: 58, 193: 478, 194: 240, 195: 86, 196: 324, 197: 254, 198: 16, 199: 722, 200: 484}
Number of labels used: 22
Total time: 7.55 sec
Memory: 150.82 MB
=============================================

========== NEW INCUMBENT SOLUTION ==========
{1: 86, 2: 324, 3: 554, 4: 792, 5: 484, 6: 722, 7: 478, 8: 240, 9: 478, 10: 240, 11: 792, 12: 554, 13: 16, 14: 254, 15: 324, 16: 86, 17: 16, 18: 254, 19: 324, 20: 86, 21: 792, 22: 554, 23: 478, 24: 240, 25: 366, 26: 128, 27: 394, 28: 156, 29: 16, 30: 254, 31: 156, 32: 394, 33: 554, 34: 792, 35: 366, 36: 128, 37: 394, 38: 156, 39: 366, 40: 128, 41: 722, 42: 484, 43: 722, 44: 484, 45: 16, 46: 254, 47: 484, 48: 722, 49: 484, 50: 722, 51: 16, 52: 254, 53: 86, 54: 324, 55: 652, 56: 414, 57: 414, 58: 652, 59: 16, 60: 254, 61: 16, 62: 254, 63: 324, 64: 86, 65: 254, 66: 16, 67: 58, 68: 296, 69: 156, 70: 394, 71: 414, 72: 652, 73: 478, 74: 240, 75: 324, 76: 86, 77: 722, 78: 484, 79: 366, 80: 128, 81: 86, 82: 324, 83: 484, 84: 722, 85: 414, 86: 652, 87: 554, 88: 792, 89: 722, 90: 484, 91: 652, 92: 414, 93: 16, 94: 254, 95: 58, 96: 296, 97: 408, 98: 170, 99: 414, 100: 652, 101: 554, 102: 792, 103: 366, 104: 128, 105: 666, 106: 428, 107: 394, 108: 156, 109: 16, 110: 254, 111: 86, 112: 324, 113: 484, 114: 722, 115: 666, 116: 428, 117: 156, 118: 394, 119: 394, 120: 156, 121: 170, 122: 408, 123: 170, 124: 408, 125: 254, 126: 16, 127: 58, 128: 296, 129: 128, 130: 366, 131: 484, 132: 722, 133: 86, 134: 324, 135: 170, 136: 408, 137: 128, 138: 366, 139: 254, 140: 16, 141: 414, 142: 652, 143: 722, 144: 484, 145: 86, 146: 324, 147: 722, 148: 484, 149: 366, 150: 128, 151: 722, 152: 484, 153: 722, 154: 484, 155: 156, 156: 394, 157: 366, 158: 128, 159: 254, 160: 16, 161: 414, 162: 652, 163: 484, 164: 722, 165: 128, 166: 366, 167: 666, 168: 428, 169: 156, 170: 394, 171: 484, 172: 722, 173: 324, 174: 86, 175: 652, 176: 414, 177: 484, 178: 722, 179: 722, 180: 484, 181: 128, 182: 366, 183: 86, 184: 324, 185: 554, 186: 792, 187: 86, 188: 324, 189: 16, 190: 254, 191: 296, 192: 58, 193: 478, 194: 240, 195: 86, 196: 324, 197: 254, 198: 16, 199: 722, 200: 484}
Number of labels used: 22
Total time: 7.55 sec
Memory: 150.95 MB
=============================================
*     0+    0                           18.0000       18.0000             0.00%
      0     0        cutoff             18.0000       18.0000     1857    0.00%
Elapsed time = 1.12 sec. (1121.81 ticks, tree = 0.01 MB, solutions = 6)

Root node processing (before b&c):
  Real time             =    1.12 sec. (1122.29 ticks)
Parallel b&c, 12 threads:
  Real time             =    0.00 sec. (0.00 ticks)
  Sync time (average)   =    0.00 sec.
  Wait time (average)   =    0.00 sec.
                          ------------
Total (root+branch&cut) =    1.12 sec. (1122.29 ticks)
Solution :
{30, 268, 296, 58, 414, 652, 142, 380, 240, 478, 442, 680, 380, 142, 58, 296, 268, 30, 86, 324, 414, 652, 478, 240, 792, 554, 30, 268, 30, 268, 554, 792, 442, 680, 652, 414, 652, 414, 268, 30, 442, 680, 680, 442, 142, 380, 30, 268, 58, 296, 324, 86, 58, 296, 58, 296, 296, 58, 30, 268, 86, 324, 86, 324, 792, 554, 296, 58, 324, 86, 30, 268, 142, 380, 512, 750, 86, 324, 86, 324, 142, 380, 680, 442, 30, 268, 792, 554, 414, 652, 380, 142, 296, 58, 652, 414, 240, 478, 324, 86, 268, 30, 652, 414, 512, 750, 296, 58, 30, 268, 750, 512, 324, 86, 792, 554, 324, 86, 380, 142, 142, 380, 142, 380, 58, 296, 58, 296, 380, 142, 268, 30, 512, 750, 478, 240, 414, 652, 554, 792, 380, 142, 30, 268, 750, 512, 324, 86, 554, 792, 414, 652, 512, 750, 554, 792, 680, 442, 652, 414, 442, 680, 268, 30, 380, 142, 750, 512, 296, 58, 296, 58, 58, 296, 414, 652, 554, 792, 268, 30, 380, 142, 680, 442, 30, 268, 324, 86, 380, 142, 324, 86, 478, 240, 680, 442, 30, 268, 142, 380}
Number of labels used: 18
[runlim] end:			Tue Jan 20 19:43:33 2026
[runlim] status:		ok
[runlim] result:		0
[runlim] children:		0
[runlim] real:			8.33 seconds
[runlim] time:			10.96 seconds
[runlim] space:			191.5 MB
[runlim] samples:		80
